Examples/orgate.smt2
; SMT-LIBv2 description generated by Yosys 0.8+106 (git sha1 245724a, clang 3.4-1ubuntu3 -fPIC -Os)
; yosys-smt2-module orgate
(declare-sort |orgate_s| 0)
(declare-fun |orgate_is| (|orgate_s|) Bool)
; yosys-smt2-input VL_TICK 1
; yosys-smt2-clock VL_TICK posedge
(declare-fun |orgate#0| (|orgate_s|) Bool) ; \VL_TICK
(define-fun |orgate_n VL_TICK| ((state |orgate_s|)) Bool (|orgate#0| state))
; yosys-smt2-input a 1
(declare-fun |orgate#1| (|orgate_s|) Bool) ; \a
(define-fun |orgate_n a| ((state |orgate_s|)) Bool (|orgate#1| state))
; yosys-smt2-input clk 1
(declare-fun |orgate#2| (|orgate_s|) Bool) ; \clk
(define-fun |orgate_n clk| ((state |orgate_s|)) Bool (|orgate#2| state))
; yosys-smt2-output x 1
; yosys-smt2-register x 1
(declare-fun |orgate#3| (|orgate_s|) (_ BitVec 1)) ; \x
(define-fun |orgate_n x| ((state |orgate_s|)) Bool (= ((_ extract 0 0) (|orgate#3| state)) #b1))
(define-fun |orgate#4| ((state |orgate_s|)) Bool (or  (= ((_ extract 0 0) (|orgate#3| state)) #b1) false  (|orgate#1| state) false)) ; $logic_or$orgate.vl:19$2_Y
(define-fun |orgate#5| ((state |orgate_s|)) (_ BitVec 1) (ite (|orgate#2| state) (ite (|orgate#4| state) #b1 #b0) (|orgate#3| state))) ; $0\x[0:0]
(define-fun |orgate_a| ((state |orgate_s|)) Bool true)
(define-fun |orgate_u| ((state |orgate_s|)) Bool true)
(define-fun |orgate_i| ((state |orgate_s|)) Bool 
  (= (= ((_ extract 0 0) (|orgate#3| state)) #b1) false) ; x
)
(define-fun |orgate_h| ((state |orgate_s|)) Bool true)
(define-fun |orgate_t| ((state |orgate_s|) (next_state |orgate_s|)) Bool 
  (= (|orgate#5| state) (|orgate#3| next_state)) ; $procdff$7 \x
) ; end of module orgate
; yosys-smt2-topmod orgate
; end of yosys output
